!-Generator IDFEditor 1.55
!-Option SortedOrder

!-NOTE: All comments with '!-' are ignored by the IDFEditor and are generated automatically.
!-      Use '!' comments if they need to be retained when using the IDFEditor.


!-   ===========  ALL OBJECTS IN CLASS: VERSION ===========

Version,
    25.1;                    !- Version Identifier


!-   ===========  ALL OBJECTS IN CLASS: SIMULATIONCONTROL ===========

SimulationControl,
    No,                      !- Do Zone Sizing Calculation
    No,                      !- Do System Sizing Calculation
    No,                      !- Do Plant Sizing Calculation
    No,                      !- Run Simulation for Sizing Periods
    Yes,                     !- Run Simulation for Weather File Run Periods
    No,                      !- Do HVAC Sizing Simulation for Sizing Periods
    1;                       !- Maximum Number of HVAC Sizing Simulation Passes


!-   ===========  ALL OBJECTS IN CLASS: BUILDING ===========

Building,
    pr,                      !- Name
    102,                     !- North Axis {deg}
    City,                    !- Terrain
    0.04,                    !- Loads Convergence Tolerance Value {W}
    0.4,                     !- Temperature Convergence Tolerance Value {deltaC}
    FullInteriorAndExterior, !- Solar Distribution
    25,                      !- Maximum Number of Warmup Days
    ;                        !- Minimum Number of Warmup Days


!-   ===========  ALL OBJECTS IN CLASS: TIMESTEP ===========

Timestep,
    4;                       !- Number of Timesteps per Hour


!-   ===========  ALL OBJECTS IN CLASS: SITE:LOCATION ===========

Site:Location,
    LACHAQUI,                !- Name
    -11.553,                 !- Latitude {deg}
    -76.626,                 !- Longitude {deg}
    -5.0,                    !- Time Zone {hr}
    3700;                    !- Elevation {m}


!-   ===========  ALL OBJECTS IN CLASS: RUNPERIOD ===========

RunPeriod,
    anio,                    !- Name
    12,                      !- Begin Month
    27,                      !- Begin Day of Month
    ,                        !- Begin Year
    3,                       !- End Month
    12,                      !- End Day of Month
    ,                        !- End Year
    ,                        !- Day of Week for Start Day
    No,                      !- Use Weather File Holidays and Special Days
    No,                      !- Use Weather File Daylight Saving Period
    No,                      !- Apply Weekend Holiday Rule
    Yes,                     !- Use Weather File Rain Indicators
    Yes,                     !- Use Weather File Snow Indicators
    No,                      !- Treat Weather as Actual
    Hour24;                  !- First Hour Interpolation Starting Values


!-   ===========  ALL OBJECTS IN CLASS: RUNPERIODCONTROL:DAYLIGHTSAVINGTIME ===========

! Daylight Saving Period in US
RunPeriodControl:DaylightSavingTime,
    2nd Sunday in March,     !- Start Date
    1st Sunday in November;  !- End Date


!-   ===========  ALL OBJECTS IN CLASS: SITE:GROUNDTEMPERATURE:BUILDINGSURFACE ===========

Site:GroundTemperature:BuildingSurface,
    9,                       !- January Ground Temperature {C}
    8,                       !- February Ground Temperature {C}
    8,                       !- March Ground Temperature {C}
    7,                       !- April Ground Temperature {C}
    7,                       !- May Ground Temperature {C}
    8,                       !- June Ground Temperature {C}
    8,                       !- July Ground Temperature {C}
    8,                       !- August Ground Temperature {C}
    8,                       !- September Ground Temperature {C}
    8,                       !- October Ground Temperature {C}
    8,                       !- November Ground Temperature {C}
    8;                       !- December Ground Temperature {C}


!-   ===========  ALL OBJECTS IN CLASS: SCHEDULETYPELIMITS ===========

ScheduleTypeLimits,
    Any Number;              !- Name

ScheduleTypeLimits,
    Fraction,                !- Name
    0.0,                     !- Lower Limit Value
    1.0,                     !- Upper Limit Value
    CONTINUOUS;              !- Numeric Type

ScheduleTypeLimits,
    Temperature,             !- Name
    -60,                     !- Lower Limit Value
    200,                     !- Upper Limit Value
    CONTINUOUS;              !- Numeric Type

ScheduleTypeLimits,
    On/Off,                  !- Name
    0,                       !- Lower Limit Value
    1,                       !- Upper Limit Value
    DISCRETE;                !- Numeric Type

ScheduleTypeLimits,
    Control Type,            !- Name
    0,                       !- Lower Limit Value
    4,                       !- Upper Limit Value
    DISCRETE;                !- Numeric Type

ScheduleTypeLimits,
    Humidity,                !- Name
    10,                      !- Lower Limit Value
    90,                      !- Upper Limit Value
    CONTINUOUS;              !- Numeric Type

ScheduleTypeLimits,
    Number;                  !- Name


!-   ===========  ALL OBJECTS IN CLASS: SCHEDULE:COMPACT ===========

Schedule:Compact,
    Office Lights Schedule,  !- Name
    Fraction,                !- Schedule Type Limits Name
    Through: 12/31,          !- Field 1
    For: Weekdays,           !- Field 2
    Until: 05:00,            !- Field 3
    0.05,                    !- Field 4
    Until: 07:00,            !- Field 5
    0.1,                     !- Field 6
    Until: 08:00,            !- Field 7
    0.3,                     !- Field 8
    Until: 17:00,            !- Field 9
    0.9,                     !- Field 10
    Until: 18:00,            !- Field 11
    0.5,                     !- Field 12
    Until: 20:00,            !- Field 13
    0.3,                     !- Field 14
    Until: 22:00,            !- Field 15
    0.2,                     !- Field 16
    Until: 23:00,            !- Field 17
    0.1,                     !- Field 18
    Until: 24:00,            !- Field 19
    0.05,                    !- Field 20
    For: SummerDesignDay,    !- Field 21
    Until: 24:00,            !- Field 22
    1.0,                     !- Field 23
    For: Saturday,           !- Field 24
    Until: 06:00,            !- Field 25
    0.05,                    !- Field 26
    Until: 08:00,            !- Field 27
    0.1,                     !- Field 28
    Until: 12:00,            !- Field 29
    0.3,                     !- Field 30
    Until: 17:00,            !- Field 31
    0.15,                    !- Field 32
    Until: 24:00,            !- Field 33
    0.05,                    !- Field 34
    For: WinterDesignDay,    !- Field 35
    Until: 24:00,            !- Field 36
    0.0,                     !- Field 37
    For: Sunday Holidays AllOtherDays,  !- Field 38
    Until: 24:00,            !- Field 39
    0.05;                    !- Field 40

Schedule:Compact,
    Office Equipment Schedule,  !- Name
    Fraction,                !- Schedule Type Limits Name
    Through: 12/31,          !- Field 1
    For: Weekdays,           !- Field 2
    Until: 08:00,            !- Field 3
    0.40,                    !- Field 4
    Until: 12:00,            !- Field 5
    0.90,                    !- Field 6
    Until: 13:00,            !- Field 7
    0.80,                    !- Field 8
    Until: 17:00,            !- Field 9
    0.90,                    !- Field 10
    Until: 18:00,            !- Field 11
    0.50,                    !- Field 12
    Until: 24:00,            !- Field 13
    0.40,                    !- Field 14
    For: SummerDesignDay,    !- Field 15
    Until: 24:00,            !- Field 16
    1.0,                     !- Field 17
    For: Saturday,           !- Field 18
    Until: 06:00,            !- Field 19
    0.30,                    !- Field 20
    Until: 08:00,            !- Field 21
    0.4,                     !- Field 22
    Until: 12:00,            !- Field 23
    0.5,                     !- Field 24
    Until: 17:00,            !- Field 25
    0.35,                    !- Field 26
    Until: 24:00,            !- Field 27
    0.30,                    !- Field 28
    For: WinterDesignDay,    !- Field 29
    Until: 24:00,            !- Field 30
    0.0,                     !- Field 31
    For: Sunday Holidays AllOtherDays,  !- Field 32
    Until: 24:00,            !- Field 33
    0.30;                    !- Field 34

Schedule:Compact,
    Office Occupancy Schedule,  !- Name
    Fraction,                !- Schedule Type Limits Name
    Through: 12/31,          !- Field 1
    For: Weekdays,           !- Field 2
    Until: 06:00,            !- Field 3
    0.0,                     !- Field 4
    Until: 07:00,            !- Field 5
    0.1,                     !- Field 6
    Until: 08:00,            !- Field 7
    0.2,                     !- Field 8
    Until: 12:00,            !- Field 9
    0.95,                    !- Field 10
    Until: 13:00,            !- Field 11
    0.5,                     !- Field 12
    Until: 17:00,            !- Field 13
    0.95,                    !- Field 14
    Until: 18:00,            !- Field 15
    0.3,                     !- Field 16
    Until: 20:00,            !- Field 17
    0.1,                     !- Field 18
    Until: 24:00,            !- Field 19
    0.05,                    !- Field 20
    For: SummerDesignDay,    !- Field 21
    Until: 06:00,            !- Field 22
    0.0,                     !- Field 23
    Until: 22:00,            !- Field 24
    1.0,                     !- Field 25
    Until: 24:00,            !- Field 26
    0.05,                    !- Field 27
    For: Saturday,           !- Field 28
    Until: 06:00,            !- Field 29
    0.0,                     !- Field 30
    Until: 08:00,            !- Field 31
    0.1,                     !- Field 32
    Until: 12:00,            !- Field 33
    0.3,                     !- Field 34
    Until: 17:00,            !- Field 35
    0.1,                     !- Field 36
    Until: 19:00,            !- Field 37
    0.0,                     !- Field 38
    Until: 24:00,            !- Field 39
    0.0,                     !- Field 40
    For: WinterDesignDay,    !- Field 41
    Until: 24:00,            !- Field 42
    0.0,                     !- Field 43
    For: Sunday Holidays AllOtherDays,  !- Field 44
    Until: 06:00,            !- Field 45
    0.0,                     !- Field 46
    Until: 18:00,            !- Field 47
    0.0,                     !- Field 48
    Until: 24:00,            !- Field 49
    0.0;                     !- Field 50

Schedule:Compact,
    Infiltration Schedule,   !- Name
    Fraction,                !- Schedule Type Limits Name
    Through: 12/31,          !- Field 1
    For: Weekdays SummerDesignDay,  !- Field 2
    Until: 06:00,            !- Field 3
    1.0,                     !- Field 4
    Until: 22:00,            !- Field 5
    0.0,                     !- Field 6
    Until: 24:00,            !- Field 7
    1.0,                     !- Field 8
    For: Saturday WinterDesignDay,  !- Field 9
    Until: 06:00,            !- Field 10
    1.0,                     !- Field 11
    Until: 18:00,            !- Field 12
    0.0,                     !- Field 13
    Until: 24:00,            !- Field 14
    1.0,                     !- Field 15
    For: Sunday Holidays AllOtherDays,  !- Field 16
    Until: 24:00,            !- Field 17
    1.0;                     !- Field 18

Schedule:Compact,
    Infiltration Half On Schedule,  !- Name
    Fraction,                !- Schedule Type Limits Name
    Through: 12/31,          !- Field 1
    For: Weekdays SummerDesignDay,  !- Field 2
    Until: 06:00,            !- Field 3
    1.0,                     !- Field 4
    Until: 22:00,            !- Field 5
    0.5,                     !- Field 6
    Until: 24:00,            !- Field 7
    1.0,                     !- Field 8
    For: Saturday WinterDesignDay,  !- Field 9
    Until: 06:00,            !- Field 10
    1.0,                     !- Field 11
    Until: 18:00,            !- Field 12
    0.5,                     !- Field 13
    Until: 24:00,            !- Field 14
    1.0,                     !- Field 15
    For: Sunday Holidays AllOtherDays,  !- Field 16
    Until: 24:00,            !- Field 17
    1.0;                     !- Field 18

Schedule:Compact,
    Infiltration Quarter On Schedule,  !- Name
    Fraction,                !- Schedule Type Limits Name
    Through: 12/31,          !- Field 1
    For: Weekdays SummerDesignDay,  !- Field 2
    Until: 06:00,            !- Field 3
    1.0,                     !- Field 4
    Until: 22:00,            !- Field 5
    0.25,                    !- Field 6
    Until: 24:00,            !- Field 7
    1.0,                     !- Field 8
    For: Saturday WinterDesignDay,  !- Field 9
    Until: 06:00,            !- Field 10
    1.0,                     !- Field 11
    Until: 18:00,            !- Field 12
    0.25,                    !- Field 13
    Until: 24:00,            !- Field 14
    1.0,                     !- Field 15
    For: Sunday Holidays AllOtherDays,  !- Field 16
    Until: 24:00,            !- Field 17
    1.0;                     !- Field 18

Schedule:Compact,
    Hours of Operation Schedule,  !- Name
    On/Off,                  !- Schedule Type Limits Name
    Through: 12/31,          !- Field 1
    For: Weekdays SummerDesignDay,  !- Field 2
    Until: 06:00,            !- Field 3
    0.0,                     !- Field 4
    Until: 22:00,            !- Field 5
    1.0,                     !- Field 6
    Until: 24:00,            !- Field 7
    0.0,                     !- Field 8
    For: Saturday WinterDesignDay,  !- Field 9
    Until: 06:00,            !- Field 10
    0.0,                     !- Field 11
    Until: 18:00,            !- Field 12
    1.0,                     !- Field 13
    Until: 24:00,            !- Field 14
    0.0,                     !- Field 15
    For: Sunday Holidays AllOtherDays,  !- Field 16
    Until: 24:00,            !- Field 17
    0.0;                     !- Field 18

Schedule:Compact,
    Always On,               !- Name
    Fraction,                !- Schedule Type Limits Name
    Through: 12/31,          !- Field 1
    For: AllDays,            !- Field 2
    Until: 24:00,            !- Field 3
    1.0;                     !- Field 4

Schedule:Compact,
    Always Off,              !- Name
    Fraction,                !- Schedule Type Limits Name
    Through: 12/31,          !- Field 1
    For: AllDays,            !- Field 2
    Until: 24:00,            !- Field 3
    0.0;                     !- Field 4

Schedule:Compact,
    Heating Setpoint Schedule,  !- Name
    Temperature,             !- Schedule Type Limits Name
    Through: 12/31,          !- Field 1
    For: Weekdays,           !- Field 2
    Until: 05:00,            !- Field 3
    15.6,                    !- Field 4
    Until: 19:00,            !- Field 5
    21.0,                    !- Field 6
    Until: 24:00,            !- Field 7
    15.6,                    !- Field 8
    For SummerDesignDay,     !- Field 9
    Until: 24:00,            !- Field 10
    15.6,                    !- Field 11
    For: Saturday,           !- Field 12
    Until: 06:00,            !- Field 13
    15.6,                    !- Field 14
    Until: 17:00,            !- Field 15
    21.0,                    !- Field 16
    Until: 24:00,            !- Field 17
    15.6,                    !- Field 18
    For: WinterDesignDay,    !- Field 19
    Until: 24:00,            !- Field 20
    21.0,                    !- Field 21
    For: Sunday Holidays AllOtherDays,  !- Field 22
    Until: 24:00,            !- Field 23
    15.6;                    !- Field 24

Schedule:Compact,
    Cooling Setpoint Schedule,  !- Name
    Temperature,             !- Schedule Type Limits Name
    Through: 12/31,          !- Field 1
    For: Weekdays SummerDesignDay,  !- Field 2
    Until: 06:00,            !- Field 3
    30.0,                    !- Field 4
    Until: 22:00,            !- Field 5
    24.0,                    !- Field 6
    Until: 24:00,            !- Field 7
    30.0,                    !- Field 8
    For: Saturday,           !- Field 9
    Until: 06:00,            !- Field 10
    30.0,                    !- Field 11
    Until: 18:00,            !- Field 12
    24.0,                    !- Field 13
    Until: 24:00,            !- Field 14
    30.0,                    !- Field 15
    For WinterDesignDay,     !- Field 16
    Until: 24:00,            !- Field 17
    30.0,                    !- Field 18
    For: Sunday Holidays AllOtherDays,  !- Field 19
    Until: 24:00,            !- Field 20
    30.0;                    !- Field 21

Schedule:Compact,
    Office Activity Schedule,!- Name
    Any Number,              !- Schedule Type Limits Name
    Through: 12/31,          !- Field 1
    For: AllDays,            !- Field 2
    Until: 24:00,            !- Field 3
    120.;                    !- Field 4

Schedule:Compact,
    Office Work Eff. Schedule,  !- Name
    Fraction,                !- Schedule Type Limits Name
    Through: 12/31,          !- Field 1
    For: AllDays,            !- Field 2
    Until: 24:00,            !- Field 3
    0.0;                     !- Field 4

Schedule:Compact,
    Office Clothing Schedule,!- Name
    Any Number,              !- Schedule Type Limits Name
    Through: 04/30,          !- Field 1
    For: AllDays,            !- Field 2
    Until: 24:00,            !- Field 3
    1.0,                     !- Field 4
    Through: 09/30,          !- Field 5
    For: AllDays,            !- Field 6
    Until: 24:00,            !- Field 7
    0.5,                     !- Field 8
    Through: 12/31,          !- Field 9
    For: AllDays,            !- Field 10
    Until: 24:00,            !- Field 11
    1.0;                     !- Field 12


!-   ===========  ALL OBJECTS IN CLASS: MATERIAL ===========

Material,
    calamina,                !- Name
    Smooth,                  !- Roughness
    0.0006,                  !- Thickness {m}
    52,                      !- Conductivity {W/m-K}
    7850,                    !- Density {kg/m3}
    470,                     !- Specific Heat {J/kg-K}
    0.23,                    !- Thermal Absorptance
    0.45,                    !- Solar Absorptance
    0.45;                    !- Visible Absorptance

Material,
    ladrillo,                !- Name
    Rough,                   !- Roughness
    0.15,                    !- Thickness {m}
    0.72,                    !- Conductivity {W/m-K}
    1800,                    !- Density {kg/m3}
    840,                     !- Specific Heat {J/kg-K}
    0.9,                     !- Thermal Absorptance
    0.7,                     !- Solar Absorptance
    0.7;                     !- Visible Absorptance

Material,
    madera,                  !- Name
    Rough,                   !- Roughness
    0.025,                   !- Thickness {m}
    0.12,                    !- Conductivity {W/m-K}
    550,                     !- Density {kg/m3}
    1500,                    !- Specific Heat {J/kg-K}
    0.9,                     !- Thermal Absorptance
    0.7,                     !- Solar Absorptance
    0.7;                     !- Visible Absorptance

Material,
    metal,                   !- Name
    Smooth,                  !- Roughness
    0.01,                    !- Thickness {m}
    50,                      !- Conductivity {W/m-K}
    8000,                    !- Density {kg/m3}
    500,                     !- Specific Heat {J/kg-K}
    0.9,                     !- Thermal Absorptance
    0.7,                     !- Solar Absorptance
    0.7;                     !- Visible Absorptance

Material,
    falso_piso_arena_cemento,!- Name
    Rough,                   !- Roughness
    0.1,                     !- Thickness {m}
    1.4,                     !- Conductivity {W/m-K}
    2000,                    !- Density {kg/m3}
    840,                     !- Specific Heat {J/kg-K}
    0.9,                     !- Thermal Absorptance
    0.7,                     !- Solar Absorptance
    0.7;                     !- Visible Absorptance

Material,
    piso_entre_ambientes_madera,  !- Name
    Rough,                   !- Roughness
    0.025,                   !- Thickness {m}
    0.12,                    !- Conductivity {W/m-K}
    550,                     !- Density {kg/m3}
    1500,                    !- Specific Heat {J/kg-K}
    0.9,                     !- Thermal Absorptance
    0.7,                     !- Solar Absorptance
    0.7;                     !- Visible Absorptance

Material,
    TARRAJEO_CEMENTO_ARENA_2CM,  !- Name
    Rough,                   !- Roughness
    0.02,                    !- Thickness {m}
    0.72,                    !- Conductivity {W/m-K}
    1600,                    !- Density {kg/m3}
    840,                     !- Specific Heat {J/kg-K}
    0.9,                     !- Thermal Absorptance
    0.2,                     !- Solar Absorptance
    0.2;                     !- Visible Absorptance

Material,
    TARRAJEO_CEMENTO_ARENA_1CM,  !- Name
    Rough,                   !- Roughness
    0.01,                    !- Thickness {m}
    0.72,                    !- Conductivity {W/m-K}
    1600,                    !- Density {kg/m3}
    840,                     !- Specific Heat {J/kg-K}
    0.9,                     !- Thermal Absorptance
    0.2,                     !- Solar Absorptance
    0.2;                     !- Visible Absorptance


!-   ===========  ALL OBJECTS IN CLASS: WINDOWMATERIAL:GLAZING ===========

WindowMaterial:Glazing,
    Clear 4mm,               !- Name
    SpectralAverage,         !- Optical Data Type
    ,                        !- Window Glass Spectral Data Set Name
    0.004,                   !- Thickness {m}
    0.837,                   !- Solar Transmittance at Normal Incidence
    0.075,                   !- Front Side Solar Reflectance at Normal Incidence
    0.075,                   !- Back Side Solar Reflectance at Normal Incidence
    0.898,                   !- Visible Transmittance at Normal Incidence
    0.081,                   !- Front Side Visible Reflectance at Normal Incidence
    0.081,                   !- Back Side Visible Reflectance at Normal Incidence
    0,                       !- Infrared Transmittance at Normal Incidence
    0.84,                    !- Front Side Infrared Hemispherical Emissivity
    0.84,                    !- Back Side Infrared Hemispherical Emissivity
    0.9;                     !- Conductivity {W/m-K}


!-   ===========  ALL OBJECTS IN CLASS: CONSTRUCTION ===========

Construction,
    paredes,                 !- Name
    TARRAJEO_CEMENTO_ARENA_1CM,  !- Outside Layer
    ladrillo,                !- Layer 2
    TARRAJEO_CEMENTO_ARENA_1CM;  !- Layer 3

Construction,
    techo1,                  !- Name
    calamina;                !- Outside Layer

Construction,
    techo2,                  !- Name
    calamina;                !- Outside Layer

Construction,
    piso,                    !- Name
    madera;                  !- Outside Layer

Construction,
    puerta,                  !- Name
    metal;                   !- Outside Layer

Construction,
    ventana,                 !- Name
    Clear 4mm;               !- Outside Layer

Construction,
    piso_del_primer_piso,    !- Name
    falso_piso_arena_cemento;!- Outside Layer

Construction,
    techo_piso_entre_zonas,  !- Name
    piso_entre_ambientes_madera;  !- Outside Layer


!-   ===========  ALL OBJECTS IN CLASS: GLOBALGEOMETRYRULES ===========

GlobalGeometryRules,
    UpperLeftCorner,         !- Starting Vertex Position
    Counterclockwise,        !- Vertex Entry Direction
    Relative;                !- Coordinate System


!-   ===========  ALL OBJECTS IN CLASS: ZONE ===========

Zone,
    primeroPisoCentro,       !- Name
    270,                     !- Direction of Relative North {deg}
    0.341875,                !- X Origin {m}
    2.18885,                 !- Y Origin {m}
    0.0,                     !- Z Origin {m}
    ,                        !- Type
    1;                       !- Multiplier

Zone,
    zona_primero_piso_derecha,  !- Name
    0.0,                     !- Direction of Relative North {deg}
    -0.64339,                !- X Origin {m}
    6.48559,                 !- Y Origin {m}
    0.0,                     !- Z Origin {m}
    ,                        !- Type
    1;                       !- Multiplier

Zone,
    primero_piso_izquierda_zona,  !- Name
    0.0,                     !- Direction of Relative North {deg}
    1.333257,                !- X Origin {m}
    0.611417,                !- Y Origin {m}
    0.0,                     !- Z Origin {m}
    ,                        !- Type
    1;                       !- Multiplier

Zone,
    segundo_piso_Centro,     !- Name
    0.0,                     !- Direction of Relative North {deg}
    -13.28855,               !- X Origin {m}
    2.562237,                !- Y Origin {m}
    0.0,                     !- Z Origin {m}
    ,                        !- Type
    1;                       !- Multiplier

Zone,
    segundo_piso_izquierda_zona,  !- Name
    0.0,                     !- Direction of Relative North {deg}
    -1.477967,               !- X Origin {m}
    0.394956,                !- Y Origin {m}
    2.55,                    !- Z Origin {m}
    ,                        !- Type
    1;                       !- Multiplier

Zone,
    zona_segundo_piso_derecha,  !- Name
    0.0,                     !- Direction of Relative North {deg}
    -1.578406,               !- X Origin {m}
    5.866975,                !- Y Origin {m}
    2.55,                    !- Z Origin {m}
    ,                        !- Type
    1;                       !- Multiplier


!-   ===========  ALL OBJECTS IN CLASS: BUILDINGSURFACE:DETAILED ===========

BuildingSurface:Detailed,
    pisoPrimerPisoCentroAbajo,  !- Name
    Floor,                   !- Surface Type
    piso_del_primer_piso,    !- Construction Name
    primeroPisoCentro,       !- Zone Name
    ,                        !- Space Name
    Ground,                  !- Outside Boundary Condition
    ,                        !- Outside Boundary Condition Object
    NoSun,                   !- Sun Exposure
    NoWind,                  !- Wind Exposure
    0.0,                     !- View Factor to Ground
    4,                       !- Number of Vertices
    3.678125000000,          !- Vertex 1 X-coordinate {m}
    -2.188850000000,         !- Vertex 1 Y-coordinate {m}
    0.000000000000,          !- Vertex 1 Z-coordinate {m}
    -0.341875000000,         !- Vertex 2 X-coordinate {m}
    -2.188850000000,         !- Vertex 2 Y-coordinate {m}
    0.000000000000,          !- Vertex 2 Z-coordinate {m}
    -0.341875000000,         !- Vertex 3 X-coordinate {m}
    4.511150000000,          !- Vertex 3 Y-coordinate {m}
    0.000000000000,          !- Vertex 3 Z-coordinate {m}
    3.678125000000,          !- Vertex 4 X-coordinate {m}
    4.511150000000,          !- Vertex 4 Y-coordinate {m}
    0.000000000000;          !- Vertex 4 Z-coordinate {m}

BuildingSurface:Detailed,
    paredPrimerPisoCentroEste,  !- Name
    Wall,                    !- Surface Type
    paredes,                 !- Construction Name
    primeroPisoCentro,       !- Zone Name
    ,                        !- Space Name
    Surface,                 !- Outside Boundary Condition
    pared_primero_piso_izquierda_oeste,  !- Outside Boundary Condition Object
    NoSun,                   !- Sun Exposure
    NoWind,                  !- Wind Exposure
    0.0,                     !- View Factor to Ground
    4,                       !- Number of Vertices
    -0.341875000000,         !- Vertex 1 X-coordinate {m}
    4.511150000000,          !- Vertex 1 Y-coordinate {m}
    2.550000000000,          !- Vertex 1 Z-coordinate {m}
    -0.341875000000,         !- Vertex 2 X-coordinate {m}
    4.511150000000,          !- Vertex 2 Y-coordinate {m}
    0.000000000000,          !- Vertex 2 Z-coordinate {m}
    -0.341875000000,         !- Vertex 3 X-coordinate {m}
    -2.188850000000,         !- Vertex 3 Y-coordinate {m}
    0.000000000000,          !- Vertex 3 Z-coordinate {m}
    -0.341875000000,         !- Vertex 4 X-coordinate {m}
    -2.188850000000,         !- Vertex 4 Y-coordinate {m}
    2.550000000000;          !- Vertex 4 Z-coordinate {m}

BuildingSurface:Detailed,
    paredPrimerPisoCentroNorte,  !- Name
    Wall,                    !- Surface Type
    paredes,                 !- Construction Name
    primeroPisoCentro,       !- Zone Name
    ,                        !- Space Name
    Outdoors,                !- Outside Boundary Condition
    ,                        !- Outside Boundary Condition Object
    SunExposed,              !- Sun Exposure
    WindExposed,             !- Wind Exposure
    ,                        !- View Factor to Ground
    4,                       !- Number of Vertices
    -0.341875000000,         !- Vertex 1 X-coordinate {m}
    -2.188850000000,         !- Vertex 1 Y-coordinate {m}
    2.550000000000,          !- Vertex 1 Z-coordinate {m}
    -0.341875000000,         !- Vertex 2 X-coordinate {m}
    -2.188850000000,         !- Vertex 2 Y-coordinate {m}
    0.000000000000,          !- Vertex 2 Z-coordinate {m}
    3.678125000000,          !- Vertex 3 X-coordinate {m}
    -2.188850000000,         !- Vertex 3 Y-coordinate {m}
    0.000000000000,          !- Vertex 3 Z-coordinate {m}
    3.678125000000,          !- Vertex 4 X-coordinate {m}
    -2.188850000000,         !- Vertex 4 Y-coordinate {m}
    2.550000000000;          !- Vertex 4 Z-coordinate {m}

BuildingSurface:Detailed,
    paredPrimerPisoCentroOeste,  !- Name
    Wall,                    !- Surface Type
    paredes,                 !- Construction Name
    primeroPisoCentro,       !- Zone Name
    ,                        !- Space Name
    Surface,                 !- Outside Boundary Condition
    pared_primer_piso_derecha_este,  !- Outside Boundary Condition Object
    NoSun,                   !- Sun Exposure
    NoWind,                  !- Wind Exposure
    0.0,                     !- View Factor to Ground
    4,                       !- Number of Vertices
    3.678125000000,          !- Vertex 1 X-coordinate {m}
    -2.188850000000,         !- Vertex 1 Y-coordinate {m}
    2.550000000000,          !- Vertex 1 Z-coordinate {m}
    3.678125000000,          !- Vertex 2 X-coordinate {m}
    -2.188850000000,         !- Vertex 2 Y-coordinate {m}
    0.000000000000,          !- Vertex 2 Z-coordinate {m}
    3.678125000000,          !- Vertex 3 X-coordinate {m}
    4.511150000000,          !- Vertex 3 Y-coordinate {m}
    0.000000000000,          !- Vertex 3 Z-coordinate {m}
    3.678125000000,          !- Vertex 4 X-coordinate {m}
    4.511150000000,          !- Vertex 4 Y-coordinate {m}
    2.550000000000;          !- Vertex 4 Z-coordinate {m}

BuildingSurface:Detailed,
    techoPrimerCentroArriba, !- Name
    Ceiling,                 !- Surface Type
    techo_piso_entre_zonas,  !- Construction Name
    primeroPisoCentro,       !- Zone Name
    ,                        !- Space Name
    Surface,                 !- Outside Boundary Condition
    piso_segundo_piso_centro_abajo,  !- Outside Boundary Condition Object
    NoSun,                   !- Sun Exposure
    NoWind,                  !- Wind Exposure
    0.0,                     !- View Factor to Ground
    4,                       !- Number of Vertices
    3.678125000000,          !- Vertex 1 X-coordinate {m}
    4.511150000000,          !- Vertex 1 Y-coordinate {m}
    2.550000000000,          !- Vertex 1 Z-coordinate {m}
    -0.341875000000,         !- Vertex 2 X-coordinate {m}
    4.511150000000,          !- Vertex 2 Y-coordinate {m}
    2.550000000000,          !- Vertex 2 Z-coordinate {m}
    -0.341875000000,         !- Vertex 3 X-coordinate {m}
    -2.188850000000,         !- Vertex 3 Y-coordinate {m}
    2.550000000000,          !- Vertex 3 Z-coordinate {m}
    3.678125000000,          !- Vertex 4 X-coordinate {m}
    -2.188850000000,         !- Vertex 4 Y-coordinate {m}
    2.550000000000;          !- Vertex 4 Z-coordinate {m}

BuildingSurface:Detailed,
    paredPrimerPisoCentroSur,!- Name
    Wall,                    !- Surface Type
    paredes,                 !- Construction Name
    primeroPisoCentro,       !- Zone Name
    ,                        !- Space Name
    Outdoors,                !- Outside Boundary Condition
    ,                        !- Outside Boundary Condition Object
    SunExposed,              !- Sun Exposure
    WindExposed,             !- Wind Exposure
    ,                        !- View Factor to Ground
    4,                       !- Number of Vertices
    3.678125000000,          !- Vertex 1 X-coordinate {m}
    4.511150000000,          !- Vertex 1 Y-coordinate {m}
    2.550000000000,          !- Vertex 1 Z-coordinate {m}
    3.678125000000,          !- Vertex 2 X-coordinate {m}
    4.511150000000,          !- Vertex 2 Y-coordinate {m}
    0.000000000000,          !- Vertex 2 Z-coordinate {m}
    -0.341875000000,         !- Vertex 3 X-coordinate {m}
    4.511150000000,          !- Vertex 3 Y-coordinate {m}
    0.000000000000,          !- Vertex 3 Z-coordinate {m}
    -0.341875000000,         !- Vertex 4 X-coordinate {m}
    4.511150000000,          !- Vertex 4 Y-coordinate {m}
    2.550000000000;          !- Vertex 4 Z-coordinate {m}

BuildingSurface:Detailed,
    piso_primer_piso_derecha_abajo,  !- Name
    Floor,                   !- Surface Type
    piso_del_primer_piso,    !- Construction Name
    zona_primero_piso_derecha,  !- Zone Name
    ,                        !- Space Name
    Ground,                  !- Outside Boundary Condition
    ,                        !- Outside Boundary Condition Object
    NoSun,                   !- Sun Exposure
    NoWind,                  !- Wind Exposure
    0.0,                     !- View Factor to Ground
    4,                       !- Number of Vertices
    3.174115000000,          !- Vertex 1 X-coordinate {m}
    3.401385000000,          !- Vertex 1 Y-coordinate {m}
    0.000000000000,          !- Vertex 1 Z-coordinate {m}
    3.174115000000,          !- Vertex 2 X-coordinate {m}
    -0.618615000000,         !- Vertex 2 Y-coordinate {m}
    0.000000000000,          !- Vertex 2 Z-coordinate {m}
    -3.525885000000,         !- Vertex 3 X-coordinate {m}
    -0.618615000000,         !- Vertex 3 Y-coordinate {m}
    0.000000000000,          !- Vertex 3 Z-coordinate {m}
    -3.525885000000,         !- Vertex 4 X-coordinate {m}
    3.401385000000,          !- Vertex 4 Y-coordinate {m}
    0.000000000000;          !- Vertex 4 Z-coordinate {m}

BuildingSurface:Detailed,
    techoPrimeroPisoDerecha, !- Name
    Ceiling,                 !- Surface Type
    piso_del_primer_piso,    !- Construction Name
    zona_primero_piso_derecha,  !- Zone Name
    ,                        !- Space Name
    Surface,                 !- Outside Boundary Condition
    piso_segundo_piso_derecha_abajo,  !- Outside Boundary Condition Object
    NoSun,                   !- Sun Exposure
    NoWind,                  !- Wind Exposure
    0.0,                     !- View Factor to Ground
    4,                       !- Number of Vertices
    -3.525885000000,         !- Vertex 1 X-coordinate {m}
    3.401385000000,          !- Vertex 1 Y-coordinate {m}
    2.550000000000,          !- Vertex 1 Z-coordinate {m}
    -3.525885000000,         !- Vertex 2 X-coordinate {m}
    -0.618615000000,         !- Vertex 2 Y-coordinate {m}
    2.550000000000,          !- Vertex 2 Z-coordinate {m}
    3.174115000000,          !- Vertex 3 X-coordinate {m}
    -0.618615000000,         !- Vertex 3 Y-coordinate {m}
    2.550000000000,          !- Vertex 3 Z-coordinate {m}
    3.174115000000,          !- Vertex 4 X-coordinate {m}
    3.401385000000,          !- Vertex 4 Y-coordinate {m}
    2.550000000000;          !- Vertex 4 Z-coordinate {m}

BuildingSurface:Detailed,
    paredPrimeroPisoDerechaNorte,  !- Name
    Wall,                    !- Surface Type
    paredes,                 !- Construction Name
    zona_primero_piso_derecha,  !- Zone Name
    ,                        !- Space Name
    Outdoors,                !- Outside Boundary Condition
    ,                        !- Outside Boundary Condition Object
    SunExposed,              !- Sun Exposure
    WindExposed,             !- Wind Exposure
    ,                        !- View Factor to Ground
    4,                       !- Number of Vertices
    3.174115000000,          !- Vertex 1 X-coordinate {m}
    -0.618615000000,         !- Vertex 1 Y-coordinate {m}
    2.550000000000,          !- Vertex 1 Z-coordinate {m}
    3.174115000000,          !- Vertex 2 X-coordinate {m}
    -0.618615000000,         !- Vertex 2 Y-coordinate {m}
    0.000000000000,          !- Vertex 2 Z-coordinate {m}
    3.174115000000,          !- Vertex 3 X-coordinate {m}
    3.401385000000,          !- Vertex 3 Y-coordinate {m}
    0.000000000000,          !- Vertex 3 Z-coordinate {m}
    3.174115000000,          !- Vertex 4 X-coordinate {m}
    3.401385000000,          !- Vertex 4 Y-coordinate {m}
    2.550000000000;          !- Vertex 4 Z-coordinate {m}

BuildingSurface:Detailed,
    pared_primer_piso_derecha_oeste,  !- Name
    Wall,                    !- Surface Type
    paredes,                 !- Construction Name
    zona_primero_piso_derecha,  !- Zone Name
    ,                        !- Space Name
    Outdoors,                !- Outside Boundary Condition
    ,                        !- Outside Boundary Condition Object
    SunExposed,              !- Sun Exposure
    WindExposed,             !- Wind Exposure
    ,                        !- View Factor to Ground
    4,                       !- Number of Vertices
    3.174115000000,          !- Vertex 1 X-coordinate {m}
    3.401385000000,          !- Vertex 1 Y-coordinate {m}
    2.550000000000,          !- Vertex 1 Z-coordinate {m}
    3.174115000000,          !- Vertex 2 X-coordinate {m}
    3.401385000000,          !- Vertex 2 Y-coordinate {m}
    0.000000000000,          !- Vertex 2 Z-coordinate {m}
    -3.525885000000,         !- Vertex 3 X-coordinate {m}
    3.401385000000,          !- Vertex 3 Y-coordinate {m}
    0.000000000000,          !- Vertex 3 Z-coordinate {m}
    -3.525885000000,         !- Vertex 4 X-coordinate {m}
    3.401385000000,          !- Vertex 4 Y-coordinate {m}
    2.550000000000;          !- Vertex 4 Z-coordinate {m}

BuildingSurface:Detailed,
    pared_primer_piso_derecha_este,  !- Name
    Wall,                    !- Surface Type
    paredes,                 !- Construction Name
    zona_primero_piso_derecha,  !- Zone Name
    ,                        !- Space Name
    Surface,                 !- Outside Boundary Condition
    paredPrimerPisoCentroOeste,  !- Outside Boundary Condition Object
    NoSun,                   !- Sun Exposure
    NoWind,                  !- Wind Exposure
    0.0,                     !- View Factor to Ground
    4,                       !- Number of Vertices
    -3.525885000000,         !- Vertex 1 X-coordinate {m}
    -0.618615000000,         !- Vertex 1 Y-coordinate {m}
    2.550000000000,          !- Vertex 1 Z-coordinate {m}
    -3.525885000000,         !- Vertex 2 X-coordinate {m}
    -0.618615000000,         !- Vertex 2 Y-coordinate {m}
    0.000000000000,          !- Vertex 2 Z-coordinate {m}
    3.174115000000,          !- Vertex 3 X-coordinate {m}
    -0.618615000000,         !- Vertex 3 Y-coordinate {m}
    0.000000000000,          !- Vertex 3 Z-coordinate {m}
    3.174115000000,          !- Vertex 4 X-coordinate {m}
    -0.618615000000,         !- Vertex 4 Y-coordinate {m}
    2.550000000000;          !- Vertex 4 Z-coordinate {m}

BuildingSurface:Detailed,
    pared_primer_piso_derecha_sur,  !- Name
    Wall,                    !- Surface Type
    paredes,                 !- Construction Name
    zona_primero_piso_derecha,  !- Zone Name
    ,                        !- Space Name
    Outdoors,                !- Outside Boundary Condition
    ,                        !- Outside Boundary Condition Object
    SunExposed,              !- Sun Exposure
    WindExposed,             !- Wind Exposure
    ,                        !- View Factor to Ground
    4,                       !- Number of Vertices
    -3.525885000000,         !- Vertex 1 X-coordinate {m}
    3.401385000000,          !- Vertex 1 Y-coordinate {m}
    2.550000000000,          !- Vertex 1 Z-coordinate {m}
    -3.525885000000,         !- Vertex 2 X-coordinate {m}
    3.401385000000,          !- Vertex 2 Y-coordinate {m}
    0.000000000000,          !- Vertex 2 Z-coordinate {m}
    -3.525885000000,         !- Vertex 3 X-coordinate {m}
    -0.618615000000,         !- Vertex 3 Y-coordinate {m}
    0.000000000000,          !- Vertex 3 Z-coordinate {m}
    -3.525885000000,         !- Vertex 4 X-coordinate {m}
    -0.618615000000,         !- Vertex 4 Y-coordinate {m}
    2.550000000000;          !- Vertex 4 Z-coordinate {m}

BuildingSurface:Detailed,
    piso_primero_piso_izquierda_abajo,  !- Name
    Floor,                   !- Surface Type
    piso_del_primer_piso,    !- Construction Name
    primero_piso_izquierda_zona,  !- Zone Name
    ,                        !- Space Name
    Ground,                  !- Outside Boundary Condition
    ,                        !- Outside Boundary Condition Object
    NoSun,                   !- Sun Exposure
    NoWind,                  !- Wind Exposure
    0.0,                     !- View Factor to Ground
    4,                       !- Number of Vertices
    1.197468000000,          !- Vertex 1 X-coordinate {m}
    1.235558000000,          !- Vertex 1 Y-coordinate {m}
    0.000000000000,          !- Vertex 1 Z-coordinate {m}
    1.197468000000,          !- Vertex 2 X-coordinate {m}
    -2.784442000000,         !- Vertex 2 Y-coordinate {m}
    0.000000000000,          !- Vertex 2 Z-coordinate {m}
    -5.502532000000,         !- Vertex 3 X-coordinate {m}
    -2.784442000000,         !- Vertex 3 Y-coordinate {m}
    0.000000000000,          !- Vertex 3 Z-coordinate {m}
    -5.502532000000,         !- Vertex 4 X-coordinate {m}
    1.235558000000,          !- Vertex 4 Y-coordinate {m}
    0.000000000000;          !- Vertex 4 Z-coordinate {m}

BuildingSurface:Detailed,
    techo_primero_piso_izquierda_arriba,  !- Name
    Ceiling,                 !- Surface Type
    techo_piso_entre_zonas,  !- Construction Name
    primero_piso_izquierda_zona,  !- Zone Name
    ,                        !- Space Name
    Surface,                 !- Outside Boundary Condition
    piso_segundo_piso_izquierda_abajo,  !- Outside Boundary Condition Object
    NoSun,                   !- Sun Exposure
    NoWind,                  !- Wind Exposure
    0.0,                     !- View Factor to Ground
    4,                       !- Number of Vertices
    -5.502532000000,         !- Vertex 1 X-coordinate {m}
    1.235558000000,          !- Vertex 1 Y-coordinate {m}
    2.550000000000,          !- Vertex 1 Z-coordinate {m}
    -5.502532000000,         !- Vertex 2 X-coordinate {m}
    -2.784442000000,         !- Vertex 2 Y-coordinate {m}
    2.550000000000,          !- Vertex 2 Z-coordinate {m}
    1.197468000000,          !- Vertex 3 X-coordinate {m}
    -2.784442000000,         !- Vertex 3 Y-coordinate {m}
    2.550000000000,          !- Vertex 3 Z-coordinate {m}
    1.197468000000,          !- Vertex 4 X-coordinate {m}
    1.235558000000,          !- Vertex 4 Y-coordinate {m}
    2.550000000000;          !- Vertex 4 Z-coordinate {m}

BuildingSurface:Detailed,
    pared_primero_piso_izquierda_norte,  !- Name
    Wall,                    !- Surface Type
    paredes,                 !- Construction Name
    primero_piso_izquierda_zona,  !- Zone Name
    ,                        !- Space Name
    Outdoors,                !- Outside Boundary Condition
    ,                        !- Outside Boundary Condition Object
    SunExposed,              !- Sun Exposure
    WindExposed,             !- Wind Exposure
    ,                        !- View Factor to Ground
    4,                       !- Number of Vertices
    1.197468000000,          !- Vertex 1 X-coordinate {m}
    -2.784442000000,         !- Vertex 1 Y-coordinate {m}
    2.550000000000,          !- Vertex 1 Z-coordinate {m}
    1.197468000000,          !- Vertex 2 X-coordinate {m}
    -2.784442000000,         !- Vertex 2 Y-coordinate {m}
    0.000000000000,          !- Vertex 2 Z-coordinate {m}
    1.197468000000,          !- Vertex 3 X-coordinate {m}
    1.235558000000,          !- Vertex 3 Y-coordinate {m}
    0.000000000000,          !- Vertex 3 Z-coordinate {m}
    1.197468000000,          !- Vertex 4 X-coordinate {m}
    1.235558000000,          !- Vertex 4 Y-coordinate {m}
    2.550000000000;          !- Vertex 4 Z-coordinate {m}

BuildingSurface:Detailed,
    pared_primero_piso_izquierda_sur,  !- Name
    Wall,                    !- Surface Type
    paredes,                 !- Construction Name
    primero_piso_izquierda_zona,  !- Zone Name
    ,                        !- Space Name
    Outdoors,                !- Outside Boundary Condition
    ,                        !- Outside Boundary Condition Object
    SunExposed,              !- Sun Exposure
    WindExposed,             !- Wind Exposure
    ,                        !- View Factor to Ground
    4,                       !- Number of Vertices
    -5.502532000000,         !- Vertex 1 X-coordinate {m}
    1.235558000000,          !- Vertex 1 Y-coordinate {m}
    2.550000000000,          !- Vertex 1 Z-coordinate {m}
    -5.502532000000,         !- Vertex 2 X-coordinate {m}
    1.235558000000,          !- Vertex 2 Y-coordinate {m}
    0.000000000000,          !- Vertex 2 Z-coordinate {m}
    -5.502532000000,         !- Vertex 3 X-coordinate {m}
    -2.784442000000,         !- Vertex 3 Y-coordinate {m}
    0.000000000000,          !- Vertex 3 Z-coordinate {m}
    -5.502532000000,         !- Vertex 4 X-coordinate {m}
    -2.784442000000,         !- Vertex 4 Y-coordinate {m}
    2.550000000000;          !- Vertex 4 Z-coordinate {m}

BuildingSurface:Detailed,
    pared_primero_piso_izquierda_este,  !- Name
    Wall,                    !- Surface Type
    paredes,                 !- Construction Name
    primero_piso_izquierda_zona,  !- Zone Name
    ,                        !- Space Name
    Outdoors,                !- Outside Boundary Condition
    ,                        !- Outside Boundary Condition Object
    SunExposed,              !- Sun Exposure
    WindExposed,             !- Wind Exposure
    ,                        !- View Factor to Ground
    4,                       !- Number of Vertices
    -5.502532000000,         !- Vertex 1 X-coordinate {m}
    -2.784442000000,         !- Vertex 1 Y-coordinate {m}
    2.550000000000,          !- Vertex 1 Z-coordinate {m}
    -5.502532000000,         !- Vertex 2 X-coordinate {m}
    -2.784442000000,         !- Vertex 2 Y-coordinate {m}
    0.000000000000,          !- Vertex 2 Z-coordinate {m}
    1.197468000000,          !- Vertex 3 X-coordinate {m}
    -2.784442000000,         !- Vertex 3 Y-coordinate {m}
    0.000000000000,          !- Vertex 3 Z-coordinate {m}
    1.197468000000,          !- Vertex 4 X-coordinate {m}
    -2.784442000000,         !- Vertex 4 Y-coordinate {m}
    2.550000000000;          !- Vertex 4 Z-coordinate {m}

BuildingSurface:Detailed,
    pared_primero_piso_izquierda_oeste,  !- Name
    Wall,                    !- Surface Type
    paredes,                 !- Construction Name
    primero_piso_izquierda_zona,  !- Zone Name
    ,                        !- Space Name
    Surface,                 !- Outside Boundary Condition
    paredPrimerPisoCentroEste,  !- Outside Boundary Condition Object
    NoSun,                   !- Sun Exposure
    NoWind,                  !- Wind Exposure
    0.0,                     !- View Factor to Ground
    4,                       !- Number of Vertices
    1.197468000000,          !- Vertex 1 X-coordinate {m}
    1.235558000000,          !- Vertex 1 Y-coordinate {m}
    2.550000000000,          !- Vertex 1 Z-coordinate {m}
    1.197468000000,          !- Vertex 2 X-coordinate {m}
    1.235558000000,          !- Vertex 2 Y-coordinate {m}
    0.000000000000,          !- Vertex 2 Z-coordinate {m}
    -5.502532000000,         !- Vertex 3 X-coordinate {m}
    1.235558000000,          !- Vertex 3 Y-coordinate {m}
    0.000000000000,          !- Vertex 3 Z-coordinate {m}
    -5.502532000000,         !- Vertex 4 X-coordinate {m}
    1.235558000000,          !- Vertex 4 Y-coordinate {m}
    2.550000000000;          !- Vertex 4 Z-coordinate {m}

BuildingSurface:Detailed,
    piso_segundo_piso_centro_abajo,  !- Name
    Floor,                   !- Surface Type
    techo_piso_entre_zonas,  !- Construction Name
    segundo_piso_Centro,     !- Zone Name
    ,                        !- Space Name
    Surface,                 !- Outside Boundary Condition
    techoPrimerCentroArriba, !- Outside Boundary Condition Object
    NoSun,                   !- Sun Exposure
    NoWind,                  !- Wind Exposure
    0.0,                     !- View Factor to Ground
    4,                       !- Number of Vertices
    15.819275000000,         !- Vertex 1 X-coordinate {m}
    3.304738000000,          !- Vertex 1 Y-coordinate {m}
    2.550000000000,          !- Vertex 1 Z-coordinate {m}
    15.819275000000,         !- Vertex 2 X-coordinate {m}
    -0.715262000000,         !- Vertex 2 Y-coordinate {m}
    2.550000000000,          !- Vertex 2 Z-coordinate {m}
    9.119275000000,          !- Vertex 3 X-coordinate {m}
    -0.715262000000,         !- Vertex 3 Y-coordinate {m}
    2.550000000000,          !- Vertex 3 Z-coordinate {m}
    9.119275000000,          !- Vertex 4 X-coordinate {m}
    3.304738000000,          !- Vertex 4 Y-coordinate {m}
    2.550000000000;          !- Vertex 4 Z-coordinate {m}

BuildingSurface:Detailed,
    pared_segundo_piso_centro_norte,  !- Name
    Wall,                    !- Surface Type
    paredes,                 !- Construction Name
    segundo_piso_Centro,     !- Zone Name
    ,                        !- Space Name
    Outdoors,                !- Outside Boundary Condition
    ,                        !- Outside Boundary Condition Object
    SunExposed,              !- Sun Exposure
    WindExposed,             !- Wind Exposure
    ,                        !- View Factor to Ground
    4,                       !- Number of Vertices
    15.819275000000,         !- Vertex 1 X-coordinate {m}
    -0.715262000000,         !- Vertex 1 Y-coordinate {m}
    5.100000000000,          !- Vertex 1 Z-coordinate {m}
    15.819275000000,         !- Vertex 2 X-coordinate {m}
    -0.715262000000,         !- Vertex 2 Y-coordinate {m}
    2.550000000000,          !- Vertex 2 Z-coordinate {m}
    15.819275000000,         !- Vertex 3 X-coordinate {m}
    3.304738000000,          !- Vertex 3 Y-coordinate {m}
    2.550000000000,          !- Vertex 3 Z-coordinate {m}
    15.819275000000,         !- Vertex 4 X-coordinate {m}
    3.304738000000,          !- Vertex 4 Y-coordinate {m}
    5.100000000000;          !- Vertex 4 Z-coordinate {m}

BuildingSurface:Detailed,
    pared_segundo_piso_centro_oeste,  !- Name
    Wall,                    !- Surface Type
    paredes,                 !- Construction Name
    segundo_piso_Centro,     !- Zone Name
    ,                        !- Space Name
    Surface,                 !- Outside Boundary Condition
    pared_segundo_piso_derecha_este,  !- Outside Boundary Condition Object
    NoSun,                   !- Sun Exposure
    NoWind,                  !- Wind Exposure
    0.0,                     !- View Factor to Ground
    4,                       !- Number of Vertices
    15.819275000000,         !- Vertex 1 X-coordinate {m}
    3.304738000000,          !- Vertex 1 Y-coordinate {m}
    5.100000000000,          !- Vertex 1 Z-coordinate {m}
    15.819275000000,         !- Vertex 2 X-coordinate {m}
    3.304738000000,          !- Vertex 2 Y-coordinate {m}
    2.550000000000,          !- Vertex 2 Z-coordinate {m}
    9.119275000000,          !- Vertex 3 X-coordinate {m}
    3.304738000000,          !- Vertex 3 Y-coordinate {m}
    2.550000000000,          !- Vertex 3 Z-coordinate {m}
    9.119275000000,          !- Vertex 4 X-coordinate {m}
    3.304738000000,          !- Vertex 4 Y-coordinate {m}
    5.310000000000;          !- Vertex 4 Z-coordinate {m}

BuildingSurface:Detailed,
    pared_segundo_piso_centro_sur,  !- Name
    Wall,                    !- Surface Type
    paredes,                 !- Construction Name
    segundo_piso_Centro,     !- Zone Name
    ,                        !- Space Name
    Outdoors,                !- Outside Boundary Condition
    ,                        !- Outside Boundary Condition Object
    SunExposed,              !- Sun Exposure
    WindExposed,             !- Wind Exposure
    ,                        !- View Factor to Ground
    4,                       !- Number of Vertices
    9.119275000000,          !- Vertex 1 X-coordinate {m}
    3.304738000000,          !- Vertex 1 Y-coordinate {m}
    5.310000000000,          !- Vertex 1 Z-coordinate {m}
    9.119275000000,          !- Vertex 2 X-coordinate {m}
    3.304738000000,          !- Vertex 2 Y-coordinate {m}
    2.550000000000,          !- Vertex 2 Z-coordinate {m}
    9.119275000000,          !- Vertex 3 X-coordinate {m}
    -0.715262000000,         !- Vertex 3 Y-coordinate {m}
    2.550000000000,          !- Vertex 3 Z-coordinate {m}
    9.119275000000,          !- Vertex 4 X-coordinate {m}
    -0.715262000000,         !- Vertex 4 Y-coordinate {m}
    5.310000000000;          !- Vertex 4 Z-coordinate {m}

BuildingSurface:Detailed,
    pared_segundo_piso_centro_este,  !- Name
    Wall,                    !- Surface Type
    paredes,                 !- Construction Name
    segundo_piso_Centro,     !- Zone Name
    ,                        !- Space Name
    Surface,                 !- Outside Boundary Condition
    pared_segundo_piso_izquierda_oeste,  !- Outside Boundary Condition Object
    NoSun,                   !- Sun Exposure
    NoWind,                  !- Wind Exposure
    0.0,                     !- View Factor to Ground
    4,                       !- Number of Vertices
    9.119275000000,          !- Vertex 1 X-coordinate {m}
    -0.715262000000,         !- Vertex 1 Y-coordinate {m}
    5.310000000000,          !- Vertex 1 Z-coordinate {m}
    9.119275000000,          !- Vertex 2 X-coordinate {m}
    -0.715262000000,         !- Vertex 2 Y-coordinate {m}
    2.550000000000,          !- Vertex 2 Z-coordinate {m}
    15.819275000000,         !- Vertex 3 X-coordinate {m}
    -0.715262000000,         !- Vertex 3 Y-coordinate {m}
    2.550000000000,          !- Vertex 3 Z-coordinate {m}
    15.819275000000,         !- Vertex 4 X-coordinate {m}
    -0.715262000000,         !- Vertex 4 Y-coordinate {m}
    5.100000000000;          !- Vertex 4 Z-coordinate {m}

BuildingSurface:Detailed,
    techo_segundo_piso_centro_arriba,  !- Name
    Roof,                    !- Surface Type
    techo2,                  !- Construction Name
    segundo_piso_Centro,     !- Zone Name
    ,                        !- Space Name
    Outdoors,                !- Outside Boundary Condition
    ,                        !- Outside Boundary Condition Object
    SunExposed,              !- Sun Exposure
    WindExposed,             !- Wind Exposure
    ,                        !- View Factor to Ground
    4,                       !- Number of Vertices
    9.119275000000,          !- Vertex 1 X-coordinate {m}
    -0.715262000000,         !- Vertex 1 Y-coordinate {m}
    5.310000000000,          !- Vertex 1 Z-coordinate {m}
    15.819275000000,         !- Vertex 2 X-coordinate {m}
    -0.715262000000,         !- Vertex 2 Y-coordinate {m}
    5.100000000000,          !- Vertex 2 Z-coordinate {m}
    15.819275000000,         !- Vertex 3 X-coordinate {m}
    3.304738000000,          !- Vertex 3 Y-coordinate {m}
    5.100000000000,          !- Vertex 3 Z-coordinate {m}
    9.119275000000,          !- Vertex 4 X-coordinate {m}
    3.304738000000,          !- Vertex 4 Y-coordinate {m}
    5.310000000000;          !- Vertex 4 Z-coordinate {m}

BuildingSurface:Detailed,
    piso_segundo_piso_izquierda_abajo,  !- Name
    Floor,                   !- Surface Type
    techo_piso_entre_zonas,  !- Construction Name
    segundo_piso_izquierda_zona,  !- Zone Name
    ,                        !- Space Name
    Surface,                 !- Outside Boundary Condition
    techo_primero_piso_izquierda_arriba,  !- Outside Boundary Condition Object
    NoSun,                   !- Sun Exposure
    NoWind,                  !- Wind Exposure
    0.0,                     !- View Factor to Ground
    4,                       !- Number of Vertices
    4.008692000000,          !- Vertex 1 X-coordinate {m}
    1.452019000000,          !- Vertex 1 Y-coordinate {m}
    0.000000000000,          !- Vertex 1 Z-coordinate {m}
    4.008692000000,          !- Vertex 2 X-coordinate {m}
    -2.567981000000,         !- Vertex 2 Y-coordinate {m}
    0.000000000000,          !- Vertex 2 Z-coordinate {m}
    -2.691308000000,         !- Vertex 3 X-coordinate {m}
    -2.567981000000,         !- Vertex 3 Y-coordinate {m}
    0.000000000000,          !- Vertex 3 Z-coordinate {m}
    -2.691308000000,         !- Vertex 4 X-coordinate {m}
    1.452019000000,          !- Vertex 4 Y-coordinate {m}
    0.000000000000;          !- Vertex 4 Z-coordinate {m}

BuildingSurface:Detailed,
    pared_segundo_piso_izquierda_este,  !- Name
    Wall,                    !- Surface Type
    paredes,                 !- Construction Name
    segundo_piso_izquierda_zona,  !- Zone Name
    ,                        !- Space Name
    Outdoors,                !- Outside Boundary Condition
    ,                        !- Outside Boundary Condition Object
    SunExposed,              !- Sun Exposure
    WindExposed,             !- Wind Exposure
    ,                        !- View Factor to Ground
    4,                       !- Number of Vertices
    -2.691308000000,         !- Vertex 1 X-coordinate {m}
    -2.567981000000,         !- Vertex 1 Y-coordinate {m}
    2.760000000000,          !- Vertex 1 Z-coordinate {m}
    -2.691308000000,         !- Vertex 2 X-coordinate {m}
    -2.567981000000,         !- Vertex 2 Y-coordinate {m}
    0.000000000000,          !- Vertex 2 Z-coordinate {m}
    4.008692000000,          !- Vertex 3 X-coordinate {m}
    -2.567981000000,         !- Vertex 3 Y-coordinate {m}
    0.000000000000,          !- Vertex 3 Z-coordinate {m}
    4.008692000000,          !- Vertex 4 X-coordinate {m}
    -2.567981000000,         !- Vertex 4 Y-coordinate {m}
    2.550000000000;          !- Vertex 4 Z-coordinate {m}

BuildingSurface:Detailed,
    pared_segundo_piso_izquierda_sur,  !- Name
    Wall,                    !- Surface Type
    paredes,                 !- Construction Name
    segundo_piso_izquierda_zona,  !- Zone Name
    ,                        !- Space Name
    Outdoors,                !- Outside Boundary Condition
    ,                        !- Outside Boundary Condition Object
    SunExposed,              !- Sun Exposure
    WindExposed,             !- Wind Exposure
    ,                        !- View Factor to Ground
    4,                       !- Number of Vertices
    -2.691308000000,         !- Vertex 1 X-coordinate {m}
    1.452019000000,          !- Vertex 1 Y-coordinate {m}
    2.760000000000,          !- Vertex 1 Z-coordinate {m}
    -2.691308000000,         !- Vertex 2 X-coordinate {m}
    1.452019000000,          !- Vertex 2 Y-coordinate {m}
    0.000000000000,          !- Vertex 2 Z-coordinate {m}
    -2.691308000000,         !- Vertex 3 X-coordinate {m}
    -2.567981000000,         !- Vertex 3 Y-coordinate {m}
    0.000000000000,          !- Vertex 3 Z-coordinate {m}
    -2.691308000000,         !- Vertex 4 X-coordinate {m}
    -2.567981000000,         !- Vertex 4 Y-coordinate {m}
    2.760000000000;          !- Vertex 4 Z-coordinate {m}

BuildingSurface:Detailed,
    pared_segundo_piso_izquierda_norte,  !- Name
    Wall,                    !- Surface Type
    paredes,                 !- Construction Name
    segundo_piso_izquierda_zona,  !- Zone Name
    ,                        !- Space Name
    Outdoors,                !- Outside Boundary Condition
    ,                        !- Outside Boundary Condition Object
    SunExposed,              !- Sun Exposure
    WindExposed,             !- Wind Exposure
    ,                        !- View Factor to Ground
    4,                       !- Number of Vertices
    4.008692000000,          !- Vertex 1 X-coordinate {m}
    -2.567981000000,         !- Vertex 1 Y-coordinate {m}
    2.550000000000,          !- Vertex 1 Z-coordinate {m}
    4.008692000000,          !- Vertex 2 X-coordinate {m}
    -2.567981000000,         !- Vertex 2 Y-coordinate {m}
    0.000000000000,          !- Vertex 2 Z-coordinate {m}
    4.008692000000,          !- Vertex 3 X-coordinate {m}
    1.452019000000,          !- Vertex 3 Y-coordinate {m}
    0.000000000000,          !- Vertex 3 Z-coordinate {m}
    4.008692000000,          !- Vertex 4 X-coordinate {m}
    1.452019000000,          !- Vertex 4 Y-coordinate {m}
    2.550000000000;          !- Vertex 4 Z-coordinate {m}

BuildingSurface:Detailed,
    pared_segundo_piso_izquierda_oeste,  !- Name
    Wall,                    !- Surface Type
    paredes,                 !- Construction Name
    segundo_piso_izquierda_zona,  !- Zone Name
    ,                        !- Space Name
    Surface,                 !- Outside Boundary Condition
    pared_segundo_piso_centro_este,  !- Outside Boundary Condition Object
    NoSun,                   !- Sun Exposure
    NoWind,                  !- Wind Exposure
    0.0,                     !- View Factor to Ground
    4,                       !- Number of Vertices
    4.008692000000,          !- Vertex 1 X-coordinate {m}
    1.452019000000,          !- Vertex 1 Y-coordinate {m}
    2.550000000000,          !- Vertex 1 Z-coordinate {m}
    4.008692000000,          !- Vertex 2 X-coordinate {m}
    1.452019000000,          !- Vertex 2 Y-coordinate {m}
    0.000000000000,          !- Vertex 2 Z-coordinate {m}
    -2.691308000000,         !- Vertex 3 X-coordinate {m}
    1.452019000000,          !- Vertex 3 Y-coordinate {m}
    0.000000000000,          !- Vertex 3 Z-coordinate {m}
    -2.691308000000,         !- Vertex 4 X-coordinate {m}
    1.452019000000,          !- Vertex 4 Y-coordinate {m}
    2.760000000000;          !- Vertex 4 Z-coordinate {m}

BuildingSurface:Detailed,
    techo_segundo_piso_izquierda_arriba,  !- Name
    Roof,                    !- Surface Type
    techo2,                  !- Construction Name
    segundo_piso_izquierda_zona,  !- Zone Name
    ,                        !- Space Name
    Outdoors,                !- Outside Boundary Condition
    ,                        !- Outside Boundary Condition Object
    SunExposed,              !- Sun Exposure
    WindExposed,             !- Wind Exposure
    ,                        !- View Factor to Ground
    4,                       !- Number of Vertices
    -2.691308000000,         !- Vertex 1 X-coordinate {m}
    -2.567981000000,         !- Vertex 1 Y-coordinate {m}
    2.760000000000,          !- Vertex 1 Z-coordinate {m}
    4.008692000000,          !- Vertex 2 X-coordinate {m}
    -2.567981000000,         !- Vertex 2 Y-coordinate {m}
    2.550000000000,          !- Vertex 2 Z-coordinate {m}
    4.008692000000,          !- Vertex 3 X-coordinate {m}
    1.452019000000,          !- Vertex 3 Y-coordinate {m}
    2.550000000000,          !- Vertex 3 Z-coordinate {m}
    -2.691308000000,         !- Vertex 4 X-coordinate {m}
    1.452019000000,          !- Vertex 4 Y-coordinate {m}
    2.760000000000;          !- Vertex 4 Z-coordinate {m}

BuildingSurface:Detailed,
    piso_segundo_piso_derecha_abajo,  !- Name
    Floor,                   !- Surface Type
    piso_del_primer_piso,    !- Construction Name
    zona_segundo_piso_derecha,  !- Zone Name
    ,                        !- Space Name
    Surface,                 !- Outside Boundary Condition
    techoPrimeroPisoDerecha, !- Outside Boundary Condition Object
    NoSun,                   !- Sun Exposure
    NoWind,                  !- Wind Exposure
    0.0,                     !- View Factor to Ground
    4,                       !- Number of Vertices
    4.109131000000,          !- Vertex 1 X-coordinate {m}
    4.020000000000,          !- Vertex 1 Y-coordinate {m}
    0.000000000000,          !- Vertex 1 Z-coordinate {m}
    4.109131000000,          !- Vertex 2 X-coordinate {m}
    0.000000000000,          !- Vertex 2 Y-coordinate {m}
    0.000000000000,          !- Vertex 2 Z-coordinate {m}
    -2.590869000000,         !- Vertex 3 X-coordinate {m}
    0.000000000000,          !- Vertex 3 Y-coordinate {m}
    0.000000000000,          !- Vertex 3 Z-coordinate {m}
    -2.590869000000,         !- Vertex 4 X-coordinate {m}
    4.020000000000,          !- Vertex 4 Y-coordinate {m}
    0.000000000000;          !- Vertex 4 Z-coordinate {m}

BuildingSurface:Detailed,
    pared_segundo_piso_derecha_norte,  !- Name
    Wall,                    !- Surface Type
    paredes,                 !- Construction Name
    zona_segundo_piso_derecha,  !- Zone Name
    ,                        !- Space Name
    Outdoors,                !- Outside Boundary Condition
    ,                        !- Outside Boundary Condition Object
    SunExposed,              !- Sun Exposure
    WindExposed,             !- Wind Exposure
    ,                        !- View Factor to Ground
    4,                       !- Number of Vertices
    4.109131000000,          !- Vertex 1 X-coordinate {m}
    0.000000000000,          !- Vertex 1 Y-coordinate {m}
    2.550000000000,          !- Vertex 1 Z-coordinate {m}
    4.109131000000,          !- Vertex 2 X-coordinate {m}
    0.000000000000,          !- Vertex 2 Y-coordinate {m}
    0.000000000000,          !- Vertex 2 Z-coordinate {m}
    4.109131000000,          !- Vertex 3 X-coordinate {m}
    4.020000000000,          !- Vertex 3 Y-coordinate {m}
    0.000000000000,          !- Vertex 3 Z-coordinate {m}
    4.109131000000,          !- Vertex 4 X-coordinate {m}
    4.020000000000,          !- Vertex 4 Y-coordinate {m}
    2.550000000000;          !- Vertex 4 Z-coordinate {m}

BuildingSurface:Detailed,
    pared_segundo_piso_derecha_oeste,  !- Name
    Wall,                    !- Surface Type
    paredes,                 !- Construction Name
    zona_segundo_piso_derecha,  !- Zone Name
    ,                        !- Space Name
    Outdoors,                !- Outside Boundary Condition
    ,                        !- Outside Boundary Condition Object
    SunExposed,              !- Sun Exposure
    WindExposed,             !- Wind Exposure
    ,                        !- View Factor to Ground
    4,                       !- Number of Vertices
    4.109131000000,          !- Vertex 1 X-coordinate {m}
    4.020000000000,          !- Vertex 1 Y-coordinate {m}
    2.550000000000,          !- Vertex 1 Z-coordinate {m}
    4.109131000000,          !- Vertex 2 X-coordinate {m}
    4.020000000000,          !- Vertex 2 Y-coordinate {m}
    0.000000000000,          !- Vertex 2 Z-coordinate {m}
    -2.590869000000,         !- Vertex 3 X-coordinate {m}
    4.020000000000,          !- Vertex 3 Y-coordinate {m}
    0.000000000000,          !- Vertex 3 Z-coordinate {m}
    -2.590869000000,         !- Vertex 4 X-coordinate {m}
    4.020000000000,          !- Vertex 4 Y-coordinate {m}
    2.760000000000;          !- Vertex 4 Z-coordinate {m}

BuildingSurface:Detailed,
    techo_segundo_piso_derecha_arriba,  !- Name
    Roof,                    !- Surface Type
    techo2,                  !- Construction Name
    zona_segundo_piso_derecha,  !- Zone Name
    ,                        !- Space Name
    Outdoors,                !- Outside Boundary Condition
    ,                        !- Outside Boundary Condition Object
    SunExposed,              !- Sun Exposure
    WindExposed,             !- Wind Exposure
    ,                        !- View Factor to Ground
    4,                       !- Number of Vertices
    -2.590869000000,         !- Vertex 1 X-coordinate {m}
    0.000000000000,          !- Vertex 1 Y-coordinate {m}
    2.760000000000,          !- Vertex 1 Z-coordinate {m}
    4.109131000000,          !- Vertex 2 X-coordinate {m}
    0.000000000000,          !- Vertex 2 Y-coordinate {m}
    2.550000000000,          !- Vertex 2 Z-coordinate {m}
    4.109131000000,          !- Vertex 3 X-coordinate {m}
    4.020000000000,          !- Vertex 3 Y-coordinate {m}
    2.550000000000,          !- Vertex 3 Z-coordinate {m}
    -2.590869000000,         !- Vertex 4 X-coordinate {m}
    4.020000000000,          !- Vertex 4 Y-coordinate {m}
    2.760000000000;          !- Vertex 4 Z-coordinate {m}

BuildingSurface:Detailed,
    pared_segundo_piso_derecha_sur,  !- Name
    Wall,                    !- Surface Type
    paredes,                 !- Construction Name
    zona_segundo_piso_derecha,  !- Zone Name
    ,                        !- Space Name
    Outdoors,                !- Outside Boundary Condition
    ,                        !- Outside Boundary Condition Object
    SunExposed,              !- Sun Exposure
    WindExposed,             !- Wind Exposure
    ,                        !- View Factor to Ground
    4,                       !- Number of Vertices
    -2.590869000000,         !- Vertex 1 X-coordinate {m}
    4.020000000000,          !- Vertex 1 Y-coordinate {m}
    2.760000000000,          !- Vertex 1 Z-coordinate {m}
    -2.590869000000,         !- Vertex 2 X-coordinate {m}
    4.020000000000,          !- Vertex 2 Y-coordinate {m}
    0.000000000000,          !- Vertex 2 Z-coordinate {m}
    -2.590869000000,         !- Vertex 3 X-coordinate {m}
    0.000000000000,          !- Vertex 3 Y-coordinate {m}
    0.000000000000,          !- Vertex 3 Z-coordinate {m}
    -2.590869000000,         !- Vertex 4 X-coordinate {m}
    0.000000000000,          !- Vertex 4 Y-coordinate {m}
    2.760000000000;          !- Vertex 4 Z-coordinate {m}

BuildingSurface:Detailed,
    pared_segundo_piso_derecha_este,  !- Name
    Wall,                    !- Surface Type
    paredes,                 !- Construction Name
    zona_segundo_piso_derecha,  !- Zone Name
    ,                        !- Space Name
    Surface,                 !- Outside Boundary Condition
    pared_segundo_piso_centro_oeste,  !- Outside Boundary Condition Object
    NoSun,                   !- Sun Exposure
    NoWind,                  !- Wind Exposure
    0.0,                     !- View Factor to Ground
    4,                       !- Number of Vertices
    -2.590869000000,         !- Vertex 1 X-coordinate {m}
    0.000000000000,          !- Vertex 1 Y-coordinate {m}
    2.760000000000,          !- Vertex 1 Z-coordinate {m}
    -2.590869000000,         !- Vertex 2 X-coordinate {m}
    0.000000000000,          !- Vertex 2 Y-coordinate {m}
    0.000000000000,          !- Vertex 2 Z-coordinate {m}
    4.109131000000,          !- Vertex 3 X-coordinate {m}
    0.000000000000,          !- Vertex 3 Y-coordinate {m}
    0.000000000000,          !- Vertex 3 Z-coordinate {m}
    4.109131000000,          !- Vertex 4 X-coordinate {m}
    0.000000000000,          !- Vertex 4 Y-coordinate {m}
    2.550000000000;          !- Vertex 4 Z-coordinate {m}


!-   ===========  ALL OBJECTS IN CLASS: FENESTRATIONSURFACE:DETAILED ===========

FenestrationSurface:Detailed,
    puertaPrimerPisoCentroNorte,  !- Name
    Door,                    !- Surface Type
    puerta,                  !- Construction Name
    paredPrimerPisoCentroNorte,  !- Building Surface Name
    ,                        !- Outside Boundary Condition Object
    ,                        !- View Factor to Ground
    ,                        !- Frame and Divider Name
    ,                        !- Multiplier
    4,                       !- Number of Vertices
    -0.321875000000,         !- Vertex 1 X-coordinate {m}
    -2.188850000000,         !- Vertex 1 Y-coordinate {m}
    1.980000000000,          !- Vertex 1 Z-coordinate {m}
    -0.321875000000,         !- Vertex 2 X-coordinate {m}
    -2.188850000000,         !- Vertex 2 Y-coordinate {m}
    0.000000000000,          !- Vertex 2 Z-coordinate {m}
    0.728125000000,          !- Vertex 3 X-coordinate {m}
    -2.188850000000,         !- Vertex 3 Y-coordinate {m}
    0.000000000000,          !- Vertex 3 Z-coordinate {m}
    0.728125000000,          !- Vertex 4 X-coordinate {m}
    -2.188850000000,         !- Vertex 4 Y-coordinate {m}
    1.980000000000;          !- Vertex 4 Z-coordinate {m}

FenestrationSurface:Detailed,
    puertaPrimeroPisoDerechaNorte,  !- Name
    Door,                    !- Surface Type
    puerta,                  !- Construction Name
    paredPrimeroPisoDerechaNorte,  !- Building Surface Name
    ,                        !- Outside Boundary Condition Object
    ,                        !- View Factor to Ground
    ,                        !- Frame and Divider Name
    ,                        !- Multiplier
    4,                       !- Number of Vertices
    3.174115000000,          !- Vertex 1 X-coordinate {m}
    -0.576655917919,         !- Vertex 1 Y-coordinate {m}
    1.980000000000,          !- Vertex 1 Z-coordinate {m}
    3.174115000000,          !- Vertex 2 X-coordinate {m}
    -0.576655917919,         !- Vertex 2 Y-coordinate {m}
    0.000000000000,          !- Vertex 2 Z-coordinate {m}
    3.174115000000,          !- Vertex 3 X-coordinate {m}
    0.453344082081,          !- Vertex 3 Y-coordinate {m}
    0.000000000000,          !- Vertex 3 Z-coordinate {m}
    3.174115000000,          !- Vertex 4 X-coordinate {m}
    0.453344082081,          !- Vertex 4 Y-coordinate {m}
    1.980000000000;          !- Vertex 4 Z-coordinate {m}

FenestrationSurface:Detailed,
    puerta_primero_piso_izquierda_norte,  !- Name
    Door,                    !- Surface Type
    puerta,                  !- Construction Name
    pared_primero_piso_izquierda_norte,  !- Building Surface Name
    ,                        !- Outside Boundary Condition Object
    ,                        !- View Factor to Ground
    ,                        !- Frame and Divider Name
    ,                        !- Multiplier
    4,                       !- Number of Vertices
    1.197468000000,          !- Vertex 1 X-coordinate {m}
    0.143290731507,          !- Vertex 1 Y-coordinate {m}
    1.980000000000,          !- Vertex 1 Z-coordinate {m}
    1.197468000000,          !- Vertex 2 X-coordinate {m}
    0.143290731507,          !- Vertex 2 Y-coordinate {m}
    0.000000000000,          !- Vertex 2 Z-coordinate {m}
    1.197468000000,          !- Vertex 3 X-coordinate {m}
    1.173290731507,          !- Vertex 3 Y-coordinate {m}
    0.000000000000,          !- Vertex 3 Z-coordinate {m}
    1.197468000000,          !- Vertex 4 X-coordinate {m}
    1.173290731507,          !- Vertex 4 Y-coordinate {m}
    1.980000000000;          !- Vertex 4 Z-coordinate {m}

FenestrationSurface:Detailed,
    puerta_segundo_piso_centro_norte,  !- Name
    Door,                    !- Surface Type
    puerta,                  !- Construction Name
    pared_segundo_piso_centro_norte,  !- Building Surface Name
    ,                        !- Outside Boundary Condition Object
    ,                        !- View Factor to Ground
    ,                        !- Frame and Divider Name
    ,                        !- Multiplier
    4,                       !- Number of Vertices
    15.819275000000,         !- Vertex 1 X-coordinate {m}
    -0.617710261405,         !- Vertex 1 Y-coordinate {m}
    4.530000000000,          !- Vertex 1 Z-coordinate {m}
    15.819275000000,         !- Vertex 2 X-coordinate {m}
    -0.617710261405,         !- Vertex 2 Y-coordinate {m}
    2.550000000000,          !- Vertex 2 Z-coordinate {m}
    15.819275000000,         !- Vertex 3 X-coordinate {m}
    0.412289738595,          !- Vertex 3 Y-coordinate {m}
    2.550000000000,          !- Vertex 3 Z-coordinate {m}
    15.819275000000,         !- Vertex 4 X-coordinate {m}
    0.412289738595,          !- Vertex 4 Y-coordinate {m}
    4.530000000000;          !- Vertex 4 Z-coordinate {m}

FenestrationSurface:Detailed,
    ventana_segundo_piso_centro_norte,  !- Name
    Window,                  !- Surface Type
    ventana,                 !- Construction Name
    pared_segundo_piso_centro_norte,  !- Building Surface Name
    ,                        !- Outside Boundary Condition Object
    ,                        !- View Factor to Ground
    ,                        !- Frame and Divider Name
    ,                        !- Multiplier
    4,                       !- Number of Vertices
    15.819275000000,         !- Vertex 1 X-coordinate {m}
    0.460786331369,          !- Vertex 1 Y-coordinate {m}
    4.530000000000,          !- Vertex 1 Z-coordinate {m}
    15.819275000000,         !- Vertex 2 X-coordinate {m}
    0.460786331369,          !- Vertex 2 Y-coordinate {m}
    3.540000000000,          !- Vertex 2 Z-coordinate {m}
    15.819275000000,         !- Vertex 3 X-coordinate {m}
    1.780786331369,          !- Vertex 3 Y-coordinate {m}
    3.540000000000,          !- Vertex 3 Z-coordinate {m}
    15.819275000000,         !- Vertex 4 X-coordinate {m}
    1.780786331369,          !- Vertex 4 Y-coordinate {m}
    4.530000000000;          !- Vertex 4 Z-coordinate {m}

FenestrationSurface:Detailed,
    puerta_segundo_piso_izquierda_arriba,  !- Name
    Door,                    !- Surface Type
    puerta,                  !- Construction Name
    pared_segundo_piso_izquierda_norte,  !- Building Surface Name
    ,                        !- Outside Boundary Condition Object
    ,                        !- View Factor to Ground
    ,                        !- Frame and Divider Name
    ,                        !- Multiplier
    4,                       !- Number of Vertices
    4.008692000000,          !- Vertex 1 X-coordinate {m}
    0.309739810355,          !- Vertex 1 Y-coordinate {m}
    1.980000000000,          !- Vertex 1 Z-coordinate {m}
    4.008692000000,          !- Vertex 2 X-coordinate {m}
    0.309739810355,          !- Vertex 2 Y-coordinate {m}
    0.000000000000,          !- Vertex 2 Z-coordinate {m}
    4.008692000000,          !- Vertex 3 X-coordinate {m}
    1.339739810355,          !- Vertex 3 Y-coordinate {m}
    0.000000000000,          !- Vertex 3 Z-coordinate {m}
    4.008692000000,          !- Vertex 4 X-coordinate {m}
    1.339739810355,          !- Vertex 4 Y-coordinate {m}
    1.980000000000;          !- Vertex 4 Z-coordinate {m}

FenestrationSurface:Detailed,
    ventana_segundo_piso_izquierda_norte,  !- Name
    Window,                  !- Surface Type
    ventana,                 !- Construction Name
    pared_segundo_piso_izquierda_norte,  !- Building Surface Name
    ,                        !- Outside Boundary Condition Object
    ,                        !- View Factor to Ground
    ,                        !- Frame and Divider Name
    ,                        !- Multiplier
    4,                       !- Number of Vertices
    4.008692000000,          !- Vertex 1 X-coordinate {m}
    -1.119045617812,         !- Vertex 1 Y-coordinate {m}
    1.980000000000,          !- Vertex 1 Z-coordinate {m}
    4.008692000000,          !- Vertex 2 X-coordinate {m}
    -1.119045617812,         !- Vertex 2 Y-coordinate {m}
    0.990000000000,          !- Vertex 2 Z-coordinate {m}
    4.008692000000,          !- Vertex 3 X-coordinate {m}
    0.200954382188,          !- Vertex 3 Y-coordinate {m}
    0.990000000000,          !- Vertex 3 Z-coordinate {m}
    4.008692000000,          !- Vertex 4 X-coordinate {m}
    0.200954382188,          !- Vertex 4 Y-coordinate {m}
    1.980000000000;          !- Vertex 4 Z-coordinate {m}

FenestrationSurface:Detailed,
    puerta_segundo_piso_derecha_norte,  !- Name
    Door,                    !- Surface Type
    puerta,                  !- Construction Name
    pared_segundo_piso_derecha_norte,  !- Building Surface Name
    ,                        !- Outside Boundary Condition Object
    ,                        !- View Factor to Ground
    ,                        !- Frame and Divider Name
    ,                        !- Multiplier
    4,                       !- Number of Vertices
    4.109131000000,          !- Vertex 1 X-coordinate {m}
    0.135122681266,          !- Vertex 1 Y-coordinate {m}
    1.980000000000,          !- Vertex 1 Z-coordinate {m}
    4.109131000000,          !- Vertex 2 X-coordinate {m}
    0.135122681266,          !- Vertex 2 Y-coordinate {m}
    0.000000000000,          !- Vertex 2 Z-coordinate {m}
    4.109131000000,          !- Vertex 3 X-coordinate {m}
    1.165122681266,          !- Vertex 3 Y-coordinate {m}
    0.000000000000,          !- Vertex 3 Z-coordinate {m}
    4.109131000000,          !- Vertex 4 X-coordinate {m}
    1.165122681266,          !- Vertex 4 Y-coordinate {m}
    1.980000000000;          !- Vertex 4 Z-coordinate {m}

FenestrationSurface:Detailed,
    ventana_segundo_piso_derecha_norte,  !- Name
    Window,                  !- Surface Type
    ventana,                 !- Construction Name
    pared_segundo_piso_derecha_norte,  !- Building Surface Name
    ,                        !- Outside Boundary Condition Object
    ,                        !- View Factor to Ground
    ,                        !- Frame and Divider Name
    ,                        !- Multiplier
    4,                       !- Number of Vertices
    4.109131000000,          !- Vertex 1 X-coordinate {m}
    1.270833403967,          !- Vertex 1 Y-coordinate {m}
    1.980000000000,          !- Vertex 1 Z-coordinate {m}
    4.109131000000,          !- Vertex 2 X-coordinate {m}
    1.270833403967,          !- Vertex 2 Y-coordinate {m}
    0.990000000000,          !- Vertex 2 Z-coordinate {m}
    4.109131000000,          !- Vertex 3 X-coordinate {m}
    2.590833403967,          !- Vertex 3 Y-coordinate {m}
    0.990000000000,          !- Vertex 3 Z-coordinate {m}
    4.109131000000,          !- Vertex 4 X-coordinate {m}
    2.590833403967,          !- Vertex 4 Y-coordinate {m}
    1.980000000000;          !- Vertex 4 Z-coordinate {m}

FenestrationSurface:Detailed,
    ventana_primer_piso_centro_norte,  !- Name
    Window,                  !- Surface Type
    ventana,                 !- Construction Name
    paredPrimerPisoCentroNorte,  !- Building Surface Name
    ,                        !- Outside Boundary Condition Object
    ,                        !- View Factor to Ground
    ,                        !- Frame and Divider Name
    ,                        !- Multiplier
    4,                       !- Number of Vertices
    0.749461146307,          !- Vertex 1 X-coordinate {m}
    -2.188850000000,         !- Vertex 1 Y-coordinate {m}
    1.980000000000,          !- Vertex 1 Z-coordinate {m}
    0.749461146307,          !- Vertex 2 X-coordinate {m}
    -2.188850000000,         !- Vertex 2 Y-coordinate {m}
    0.990000000000,          !- Vertex 2 Z-coordinate {m}
    1.739461146307,          !- Vertex 3 X-coordinate {m}
    -2.188850000000,         !- Vertex 3 Y-coordinate {m}
    0.990000000000,          !- Vertex 3 Z-coordinate {m}
    1.739461146307,          !- Vertex 4 X-coordinate {m}
    -2.188850000000,         !- Vertex 4 Y-coordinate {m}
    1.980000000000;          !- Vertex 4 Z-coordinate {m}

FenestrationSurface:Detailed,
    ventana_primero_piso_izquiera_norte,  !- Name
    Window,                  !- Surface Type
    ventana,                 !- Construction Name
    pared_primero_piso_izquierda_norte,  !- Building Surface Name
    ,                        !- Outside Boundary Condition Object
    ,                        !- View Factor to Ground
    ,                        !- Frame and Divider Name
    ,                        !- Multiplier
    4,                       !- Number of Vertices
    1.197468000000,          !- Vertex 1 X-coordinate {m}
    -0.871724322209,         !- Vertex 1 Y-coordinate {m}
    1.980000000000,          !- Vertex 1 Z-coordinate {m}
    1.197468000000,          !- Vertex 2 X-coordinate {m}
    -0.871724322209,         !- Vertex 2 Y-coordinate {m}
    0.990000000000,          !- Vertex 2 Z-coordinate {m}
    1.197468000000,          !- Vertex 3 X-coordinate {m}
    0.118275677791,          !- Vertex 3 Y-coordinate {m}
    0.990000000000,          !- Vertex 3 Z-coordinate {m}
    1.197468000000,          !- Vertex 4 X-coordinate {m}
    0.118275677791,          !- Vertex 4 Y-coordinate {m}
    1.980000000000;          !- Vertex 4 Z-coordinate {m}

FenestrationSurface:Detailed,
    ventana_primer_piso_derecha_norte,  !- Name
    Window,                  !- Surface Type
    ventana,                 !- Construction Name
    paredPrimeroPisoDerechaNorte,  !- Building Surface Name
    ,                        !- Outside Boundary Condition Object
    ,                        !- View Factor to Ground
    ,                        !- Frame and Divider Name
    ,                        !- Multiplier
    4,                       !- Number of Vertices
    3.174115000000,          !- Vertex 1 X-coordinate {m}
    0.506130044342,          !- Vertex 1 Y-coordinate {m}
    1.980000000000,          !- Vertex 1 Z-coordinate {m}
    3.174115000000,          !- Vertex 2 X-coordinate {m}
    0.506130044342,          !- Vertex 2 Y-coordinate {m}
    0.990000000000,          !- Vertex 2 Z-coordinate {m}
    3.174115000000,          !- Vertex 3 X-coordinate {m}
    1.496130044342,          !- Vertex 3 Y-coordinate {m}
    0.990000000000,          !- Vertex 3 Z-coordinate {m}
    3.174115000000,          !- Vertex 4 X-coordinate {m}
    1.496130044342,          !- Vertex 4 Y-coordinate {m}
    1.980000000000;          !- Vertex 4 Z-coordinate {m}


!-   ===========  ALL OBJECTS IN CLASS: SHADING:BUILDING:DETAILED ===========

Shading:Building:Detailed,
    274578,                  !- Name
    ,                        !- Transmittance Schedule Name
    4,                       !- Number of Vertices
    2.530725000000,          !- Vertex 1 X-coordinate {m}
    -2.173025000000,         !- Vertex 1 Y-coordinate {m}
    5.100000000000,          !- Vertex 1 Z-coordinate {m}
    4.530725000000,          !- Vertex 2 X-coordinate {m}
    -2.173025000000,         !- Vertex 2 Y-coordinate {m}
    5.040000000000,          !- Vertex 2 Z-coordinate {m}
    4.530725000000,          !- Vertex 3 X-coordinate {m}
    9.886975000000,          !- Vertex 3 Y-coordinate {m}
    5.040000000000,          !- Vertex 3 Z-coordinate {m}
    2.530725000000,          !- Vertex 4 X-coordinate {m}
    9.886975000000,          !- Vertex 4 Y-coordinate {m}
    5.100000000000;          !- Vertex 4 Z-coordinate {m}

Shading:Building:Detailed,
    9EEE75,                  !- Name
    ,                        !- Transmittance Schedule Name
    4,                       !- Number of Vertices
    -5.169275000000,         !- Vertex 1 X-coordinate {m}
    -2.173025000000,         !- Vertex 1 Y-coordinate {m}
    5.340000000000,          !- Vertex 1 Z-coordinate {m}
    -4.169275000000,         !- Vertex 2 X-coordinate {m}
    -2.173025000000,         !- Vertex 2 Y-coordinate {m}
    5.310000000000,          !- Vertex 2 Z-coordinate {m}
    -4.169275000000,         !- Vertex 3 X-coordinate {m}
    9.886975000000,          !- Vertex 3 Y-coordinate {m}
    5.310000000000,          !- Vertex 3 Z-coordinate {m}
    -5.169275000000,         !- Vertex 4 X-coordinate {m}
    9.886975000000,          !- Vertex 4 Y-coordinate {m}
    5.340000000000;          !- Vertex 4 Z-coordinate {m}

Shading:Building:Detailed,
    CBB1CF,                  !- Name
    ,                        !- Transmittance Schedule Name
    4,                       !- Number of Vertices
    -5.169275000000,         !- Vertex 1 X-coordinate {m}
    9.886975000000,          !- Vertex 1 Y-coordinate {m}
    5.340000000000,          !- Vertex 1 Z-coordinate {m}
    4.530725000000,          !- Vertex 2 X-coordinate {m}
    9.886975000000,          !- Vertex 2 Y-coordinate {m}
    5.040000000000,          !- Vertex 2 Z-coordinate {m}
    4.530725000000,          !- Vertex 3 X-coordinate {m}
    11.886975000000,         !- Vertex 3 Y-coordinate {m}
    5.040000000000,          !- Vertex 3 Z-coordinate {m}
    -5.169275000000,         !- Vertex 4 X-coordinate {m}
    11.886975000000,         !- Vertex 4 Y-coordinate {m}
    5.340000000000;          !- Vertex 4 Z-coordinate {m}


!-   ===========  ALL OBJECTS IN CLASS: ZONEINFILTRATION:DESIGNFLOWRATE ===========

ZoneInfiltration:DesignFlowRate,
    infiltracion2c,          !- Name
    segundo_piso_Centro,     !- Zone or ZoneList or Space or SpaceList Name
    Infiltration Half On Schedule,  !- Schedule Name
    AirChanges/Hour,         !- Design Flow Rate Calculation Method
    ,                        !- Design Flow Rate {m3/s}
    ,                        !- Flow Rate per Floor Area {m3/s-m2}
    ,                        !- Flow Rate per Exterior Surface Area {m3/s-m2}
    8,                       !- Air Changes per Hour {1/hr}
    0.5,                     !- Constant Term Coefficient
    0.05,                    !- Temperature Term Coefficient
    0.1,                     !- Velocity Term Coefficient
    0,                       !- Velocity Squared Term Coefficient
    Outdoor;                 !- Density Basis

ZoneInfiltration:DesignFlowRate,
    infiltracion2d,          !- Name
    zona_segundo_piso_derecha,  !- Zone or ZoneList or Space or SpaceList Name
    Infiltration Half On Schedule,  !- Schedule Name
    AirChanges/Hour,         !- Design Flow Rate Calculation Method
    ,                        !- Design Flow Rate {m3/s}
    ,                        !- Flow Rate per Floor Area {m3/s-m2}
    ,                        !- Flow Rate per Exterior Surface Area {m3/s-m2}
    8,                       !- Air Changes per Hour {1/hr}
    0.5,                     !- Constant Term Coefficient
    0.05,                    !- Temperature Term Coefficient
    0.1,                     !- Velocity Term Coefficient
    0,                       !- Velocity Squared Term Coefficient
    Outdoor;                 !- Density Basis

ZoneInfiltration:DesignFlowRate,
    infiltracion2izq,        !- Name
    segundo_piso_izquierda_zona,  !- Zone or ZoneList or Space or SpaceList Name
    Infiltration Half On Schedule,  !- Schedule Name
    AirChanges/Hour,         !- Design Flow Rate Calculation Method
    ,                        !- Design Flow Rate {m3/s}
    ,                        !- Flow Rate per Floor Area {m3/s-m2}
    ,                        !- Flow Rate per Exterior Surface Area {m3/s-m2}
    8,                       !- Air Changes per Hour {1/hr}
    0.5,                     !- Constant Term Coefficient
    0.05,                    !- Temperature Term Coefficient
    0.1,                     !- Velocity Term Coefficient
    0,                       !- Velocity Squared Term Coefficient
    Outdoor;                 !- Density Basis

ZoneInfiltration:DesignFlowRate,
    infiltracion1der,        !- Name
    zona_primero_piso_derecha,  !- Zone or ZoneList or Space or SpaceList Name
    Infiltration Half On Schedule,  !- Schedule Name
    AirChanges/Hour,         !- Design Flow Rate Calculation Method
    ,                        !- Design Flow Rate {m3/s}
    ,                        !- Flow Rate per Floor Area {m3/s-m2}
    ,                        !- Flow Rate per Exterior Surface Area {m3/s-m2}
    8,                       !- Air Changes per Hour {1/hr}
    0.5,                     !- Constant Term Coefficient
    0.05,                    !- Temperature Term Coefficient
    0.1,                     !- Velocity Term Coefficient
    0,                       !- Velocity Squared Term Coefficient
    Outdoor;                 !- Density Basis

ZoneInfiltration:DesignFlowRate,
    infiltracion1cen,        !- Name
    primeroPisoCentro,       !- Zone or ZoneList or Space or SpaceList Name
    Infiltration Half On Schedule,  !- Schedule Name
    AirChanges/Hour,         !- Design Flow Rate Calculation Method
    ,                        !- Design Flow Rate {m3/s}
    ,                        !- Flow Rate per Floor Area {m3/s-m2}
    ,                        !- Flow Rate per Exterior Surface Area {m3/s-m2}
    8,                       !- Air Changes per Hour {1/hr}
    0.5,                     !- Constant Term Coefficient
    0.05,                    !- Temperature Term Coefficient
    0.1,                     !- Velocity Term Coefficient
    0,                       !- Velocity Squared Term Coefficient
    Outdoor;                 !- Density Basis

ZoneInfiltration:DesignFlowRate,
    infiltracion1izq,        !- Name
    primero_piso_izquierda_zona,  !- Zone or ZoneList or Space or SpaceList Name
    Infiltration Half On Schedule,  !- Schedule Name
    AirChanges/Hour,         !- Design Flow Rate Calculation Method
    ,                        !- Design Flow Rate {m3/s}
    ,                        !- Flow Rate per Floor Area {m3/s-m2}
    ,                        !- Flow Rate per Exterior Surface Area {m3/s-m2}
    8,                       !- Air Changes per Hour {1/hr}
    0.5,                     !- Constant Term Coefficient
    0.05,                    !- Temperature Term Coefficient
    0.1,                     !- Velocity Term Coefficient
    0,                       !- Velocity Squared Term Coefficient
    Outdoor;                 !- Density Basis


!-   ===========  ALL OBJECTS IN CLASS: OUTPUT:VARIABLEDICTIONARY ===========

Output:VariableDictionary,
    IDF;                     !- Key Field


!-   ===========  ALL OBJECTS IN CLASS: OUTPUT:VARIABLE ===========

Output:Variable,
    *,                       !- Key Value
    Site Outdoor Air Drybulb Temperature,  !- Variable Name
    Hourly;                  !- Reporting Frequency

Output:Variable,
    *,                       !- Key Value
    Zone Air Temperature,    !- Variable Name
    Hourly;                  !- Reporting Frequency

Output:Variable,
    segundo_piso_Centro,     !- Key Value
    Zone Air Relative Humidity,  !- Variable Name
    Hourly;                  !- Reporting Frequency

